&CONTROL
 calculation = 'scf'
 prefix = 'B2Mg1-108064'
/
&SYSTEM
       ibrav = 0
         nat = 3
        ntyp = 2
     ecutwfc = 35.000000
     ecutrho = 280.000000
 occupations = 'tetrahedra_opt'
       nspin = 2
 starting_magnetization(1) = 1.0
 starting_magnetization(2) = 1.0
/
&ELECTRONS
 diagonalization = "cg"
 mixing_beta = 0.3
 conv_thr = 3.000000e-07
 diagonalization = "cg"
/
CELL_PARAMETERS angstrom
     3.085000000000000e+00     0.000000000000000e+00     0.000000000000000e+00
    -1.542500000000000e+00     2.671688370674990e+00     0.000000000000000e+00
     0.000000000000000e+00     0.000000000000000e+00     3.523000000000000e+00
ATOMIC_SPECIES
 B 10.811000 b_pbe_v1.4.uspp.F.UPF
 Mg 24.305000 Mg.pbe-n-kjpaw_psl.0.3.0.UPF
ATOMIC_POSITIONS crystal
 B     6.666666666666673e-01     3.333333333333346e-01     5.000000000000000e-01
 B     3.333333333333346e-01     6.666666666666692e-01     5.000000000000000e-01
 Mg     0.000000000000000e+00     0.000000000000000e+00     0.000000000000000e+00
K_POINTS automatic
 14 14 12 0 0 0
